c This is UnifRandomKSATGenerator
c uniform random 3-SAT generated instance with: 
c clause length: 3 
c number variables: 20 
c number clauses: 85 
c clause to variable ratio: 4.27 
c random number generator name: SHA1PRNG 
c random number generator provider: SUN 
c random number generator seed: 1115105785433966430 
p cnf 20 85
9 -10 20 0
-17 -5 14 0
-1 11 15 0
1 19 15 0
-3 -12 14 0
-9 10 -11 0
16 17 -11 0
-2 5 -16 0
8 10 -11 0
-2 -12 6 0
-12 6 15 0
9 -19 -8 0
-18 3 -14 0
11 -4 6 0
17 -10 -20 0
-2 10 -4 0
-9 -3 -16 0
-20 19 7 0
-9 -1 -16 0
-9 8 5 0
-9 1 -3 0
16 1 -15 0
-1 -4 7 0
16 17 -20 0
18 12 15 0
-3 -19 -6 0
-9 -19 -14 0
-20 -8 -16 0
-14 -15 -8 0
8 15 -16 0
-1 -6 -7 0
8 18 -4 0
-9 17 -2 0
19 14 7 0
18 19 13 0
16 18 12 0
-9 -19 -13 0
-3 -7 -16 0
-19 3 -5 0
1 -12 7 0
-11 3 -14 0
-11 3 14 0
-2 11 5 0
-10 -3 11 0
17 2 13 0
-18 -11 14 0
16 -11 -14 0
-20 -12 -14 0
-2 -20 -14 0
8 -5 13 0
-9 2 -8 0
-2 13 -14 0
2 -4 11 0
9 -14 -16 0
19 -6 -16 0
-17 -18 -15 0
-17 1 3 0
20 -14 -16 0
-11 5 7 0
-1 8 -18 0
-19 10 -3 0
-9 -18 4 0
-1 -3 -7 0
-11 12 5 0
-9 -2 -7 0
-3 5 6 0
1 -13 -16 0
19 5 -15 0
3 20 -16 0
-3 -19 20 0
-20 -13 14 0
2 14 7 0
-17 -18 13 0
2 19 7 0
1 20 5 0
-18 -19 -8 0
18 6 -15 0
-18 -19 2 0
18 -4 12 0
9 -14 -8 0
1 20 14 0
-18 12 -16 0
-18 15 -16 0
9 19 14 0
8 20 6 0
